p edge 40 322
e 1 2
e 1 4
e 1 10
e 1 12
e 1 17
e 1 20
e 1 21
e 1 28
e 1 29
e 1 30
e 1 33
e 1 36
e 2 3
e 2 7
e 2 10
e 2 13
e 2 15
e 2 16
e 2 20
e 2 25
e 2 28
e 2 29
e 2 30
e 2 32
e 2 34
e 2 37
e 2 38
e 3 4
e 3 9
e 3 16
e 3 18
e 3 19
e 3 24
e 3 27
e 3 28
e 3 29
e 3 30
e 3 36
e 3 37
e 3 38
e 3 39
e 4 5
e 4 7
e 4 8
e 4 16
e 4 17
e 4 19
e 4 20
e 4 22
e 4 24
e 4 26
e 4 27
e 4 28
e 4 29
e 4 30
e 4 33
e 4 34
e 4 35
e 4 37
e 4 39
e 5 6
e 5 7
e 5 11
e 5 13
e 5 24
e 5 29
e 5 30
e 5 35
e 5 40
e 6 9
e 6 10
e 6 12
e 6 13
e 6 15
e 6 16
e 6 20
e 6 22
e 6 24
e 6 26
e 6 29
e 6 30
e 6 33
e 6 34
e 6 39
e 7 9
e 7 10
e 7 14
e 7 16
e 7 18
e 7 19
e 7 21
e 7 22
e 7 27
e 7 31
e 7 33
e 7 39
e 7 40
e 8 9
e 8 10
e 8 13
e 8 15
e 8 18
e 8 20
e 8 24
e 8 26
e 8 27
e 8 28
e 8 29
e 8 34
e 8 35
e 8 39
e 9 16
e 9 20
e 9 22
e 9 23
e 9 26
e 9 29
e 9 31
e 9 35
e 9 37
e 9 38
e 9 39
e 9 40
e 10 11
e 10 13
e 10 14
e 10 17
e 10 23
e 10 25
e 10 26
e 10 28
e 10 30
e 10 32
e 10 34
e 10 36
e 10 37
e 10 38
e 10 39
e 11 12
e 11 13
e 11 14
e 11 15
e 11 17
e 11 18
e 11 19
e 11 21
e 11 22
e 11 23
e 11 28
e 11 31
e 11 33
e 11 34
e 11 35
e 12 14
e 12 17
e 12 20
e 12 22
e 12 23
e 12 24
e 12 26
e 12 31
e 12 34
e 12 36
e 12 39
e 13 14
e 13 18
e 13 20
e 13 22
e 13 23
e 13 26
e 13 27
e 13 28
e 13 31
e 13 33
e 13 35
e 13 37
e 13 38
e 14 16
e 14 18
e 14 19
e 14 20
e 14 29
e 14 32
e 14 36
e 15 16
e 15 19
e 15 22
e 15 23
e 15 25
e 15 27
e 15 28
e 15 29
e 15 31
e 15 32
e 15 33
e 15 35
e 15 36
e 15 38
e 16 17
e 16 20
e 16 21
e 16 22
e 16 26
e 16 28
e 16 33
e 16 40
e 17 18
e 17 21
e 17 23
e 17 26
e 17 29
e 17 30
e 17 31
e 17 38
e 17 39
e 18 19
e 18 20
e 18 21
e 18 22
e 18 23
e 18 25
e 18 27
e 18 36
e 18 38
e 18 40
e 19 22
e 19 25
e 19 26
e 19 29
e 19 30
e 19 35
e 19 39
e 20 24
e 20 25
e 20 28
e 20 31
e 20 32
e 20 33
e 20 34
e 20 35
e 20 37
e 21 23
e 21 24
e 21 25
e 21 30
e 21 33
e 21 36
e 21 37
e 21 39
e 22 24
e 22 25
e 22 26
e 22 27
e 22 29
e 22 32
e 22 33
e 22 34
e 22 39
e 22 40
e 23 25
e 23 27
e 23 37
e 23 38
e 23 39
e 24 25
e 24 27
e 24 28
e 24 32
e 24 35
e 24 36
e 24 37
e 24 38
e 24 40
e 25 29
e 25 32
e 25 33
e 25 34
e 25 35
e 25 39
e 26 28
e 26 29
e 26 33
e 26 36
e 26 37
e 26 38
e 26 39
e 27 31
e 27 32
e 27 37
e 27 39
e 28 31
e 28 35
e 28 36
e 28 37
e 28 39
e 29 30
e 29 33
e 29 34
e 29 36
e 29 37
e 29 38
e 29 39
e 29 40
e 30 35
e 30 36
e 30 37
e 30 38
e 30 39
e 32 38
e 32 39
e 33 36
e 33 37
e 34 35
e 34 36
e 34 37
e 35 37
e 35 39
e 35 40
e 36 37
e 36 39
e 36 40
e 39 40
